12 61 150 168 51 62 143 195 34 140 159 13 46 116 50 101 193 174 121 83 119 71 164 80 21 66 104 93 47 11 85 29 36 90 194 63 74 189 167 146 42 58 82 153 92 177 158 137 148 20 2 154 99 182 157 131 79 60 181 5 56 128 160 65 136 191 54 27 133 75 76 135 8 132 94 44 179 138 33 25 18 37 24 38 187 14 87 122 108 130 70 125 15 100 59 118 86 144 145 170 68 141 147 155 31 53 126 173 72 192 22 10 176 115 81 39 9 190 7 112 113 64 197 40 26 165 17 19 4 43 142 156 49 161 110 134 178 23 16 88 41 107 30 175 55 184 48 124 129 111 196 73 6 149 32 188 114 171 120 45 169 3 91 84 172 96 166 127 198 77 1 123 163 152 186 151 67 105 78 183 199 28 35 98 162 52 95 69 57 89 97 139 180 102 185 109 0 106 103 117